60
26 46
14 28
5 52
17 99
10 99
5 63
16 84
16 45
26 36
25 9
29 72
16 85
10 6
23 77
15 65
22 51
28 100
23 65
5 52
23 89
3 5
10 99
5 98
5 15
16 2
14 49
26 94
19 41
17 77
11 33
6 31
2 3
29 13
27 84
24 86
2 71
29 27
6 81
28 63
25 61
1 23
26 90
20 46
23 67
1 99
29 15
27 86
1 63
16 88
13 67
7 22
28 14
16 57
21 23
5 93
17 87
6 96
1 83
11 58
8 15
